NAME:  test1
TYPE: AGTSP
COMMENT: gtsp tours
DIMENSION:  73
GTSP_SETS: 19
EDGE_WEIGHT_TYPE: EXPLICIT
EDGE_WEIGHT_FORMAT: FULL_MATRIX 
EDGE_WEIGHT_SECTION
999999	0	999999	999999	43724	43724	43724	43716	43748	43748	999999	999999	43709	43709	43701	999999	43726	43726	43726	43718	43736	43736	43736	43728	43713	43713	43705	999999	43739	43739	999999	999999	43759	43759	999999	999999	43766	43766	999999	999999	43700	43700	43692	999999	43731	43731	43731	43723	43763	43763	999999	999999	43747	43747	999999	999999	43762	43762	999999	999999	43742	43742	999999	999999	43746	43746	999999	999999	43739
999999	999999	0	999999	43724	43724	43724	999999	43748	43748	43748	999999	43709	43709	43709	43701	43726	43726	43726	999999	43736	43736	43736	999999	43713	43713	43713	43705	43739	43739	43739	999999	43759	43759	43759	999999	43766	43766	43766	999999	43700	43700	43700	43692	43731	43731	43731	999999	43763	43763	43763	999999	43747	43747	43747	999999	43762	43762	43762	999999	43742	43742	43742	999999	43746	43746	43746	999999	43739
999999	999999	999999	0	43724	43724	43724	43724	43748	43748	43748	43748	43709	43709	43709	43709	43726	43726	43726	43726	43736	43736	43736	43736	43713	43713	43713	43713	43739	43739	43739	43739	43759	43759	43759	43759	43766	43766	43766	43766	43700	43700	43700	43700	43731	43731	43731	43731	43763	43763	43763	43763	43747	43747	43747	43747	43762	43762	43762	43762	43742	43742	43742	43742	43746	43746	43746	43746	43739
0	999999	999999	999999	43724	43724	43716	999999	43748	43748	43748	43740	43709	43701	999999	999999	43726	43726	43718	999999	43736	43736	43728	999999	43713	43705	999999	999999	43739	43739	43739	43731	43759	999999	999999	999999	43766	999999	999999	999999	43700	43692	999999	999999	43731	43731	43723	999999	43763	999999	999999	999999	43747	43747	43747	43739	43762	999999	999999	999999	43742	43742	43742	43734	43746	43746	43746	43738	43739
43724	43724	43724	43716	999999	0	999999	999999	43723	43723	43723	43715	43710	43710	43702	999999	43730	43730	43730	43722	43733	43733	43733	43725	43706	43706	43698	999999	43752	43752	999999	999999	43742	43742	999999	999999	43752	43752	999999	999999	43719	43719	43719	43711	43717	43717	43717	43709	43751	43751	999999	999999	43751	43751	999999	999999	43748	43748	999999	999999	43722	43722	43722	43714	43742	43742	999999	999999	43725
43724	43724	43724	999999	999999	999999	0	999999	43723	43723	43723	999999	43710	43710	43710	43702	43730	43730	43730	999999	43733	43733	43733	999999	43706	43706	43706	43698	43752	43752	43752	999999	43742	43742	43742	999999	43752	43752	43752	999999	43719	43719	43719	999999	43717	43717	43717	999999	43751	43751	43751	999999	43751	43751	43751	999999	43748	43748	43748	999999	43722	43722	43722	999999	43742	43742	43742	999999	43725
43724	43724	43724	43724	999999	999999	999999	0	43723	43723	43723	43723	43710	43710	43710	43710	43730	43730	43730	43730	43733	43733	43733	43733	43706	43706	43706	43706	43752	43752	43752	43752	43742	43742	43742	43742	43752	43752	43752	43752	43719	43719	43719	43719	43717	43717	43717	43717	43751	43751	43751	43751	43751	43751	43751	43751	43748	43748	43748	43748	43722	43722	43722	43722	43742	43742	43742	43742	43725
43724	43724	43716	999999	0	999999	999999	999999	43723	43723	43715	999999	43710	43702	999999	999999	43730	43730	43722	999999	43733	43733	43725	999999	43706	43698	999999	999999	43752	43752	43752	43744	43742	43742	43742	43734	43752	43752	43752	43744	43719	43719	43711	999999	43717	43717	43709	999999	43751	43751	43751	43743	43751	43751	43751	43743	43748	43748	43748	43740	43722	43722	43714	999999	43742	43742	43742	43734	43725
43748	43748	999999	999999	43723	43723	43723	43715	999999	0	999999	999999	43737	43737	999999	999999	43737	43737	999999	999999	43733	43733	43733	43725	43732	43732	43732	43724	43759	43759	999999	999999	43721	43721	43721	43713	43733	43733	43733	43725	43745	43745	999999	999999	43717	43717	43717	43709	43735	43735	43735	43727	43751	43751	999999	999999	43729	43729	43729	43721	43707	43707	43699	999999	43736	43736	43736	43728	43717
43748	43748	43748	999999	43723	43723	43723	999999	999999	999999	0	999999	43737	43737	43737	999999	43737	43737	43737	999999	43733	43733	43733	999999	43732	43732	43732	999999	43759	43759	43759	999999	43721	43721	43721	999999	43733	43733	43733	999999	43745	43745	43745	999999	43717	43717	43717	999999	43735	43735	43735	999999	43751	43751	43751	999999	43729	43729	43729	999999	43707	43707	43707	43699	43736	43736	43736	999999	43717
43748	43748	43748	43748	43723	43723	43723	43723	999999	999999	999999	0	43737	43737	43737	43737	43737	43737	43737	43737	43733	43733	43733	43733	43732	43732	43732	43732	43759	43759	43759	43759	43721	43721	43721	43721	43733	43733	43733	43733	43745	43745	43745	43745	43717	43717	43717	43717	43735	43735	43735	43735	43751	43751	43751	43751	43729	43729	43729	43729	43707	43707	43707	43707	43736	43736	43736	43736	43717
43748	43748	43748	43740	43723	43723	43715	999999	0	999999	999999	999999	43737	43737	43737	43729	43737	43737	43737	43729	43733	43733	43725	999999	43732	43732	43724	999999	43759	999999	999999	999999	43721	43721	43713	999999	43733	43733	43725	999999	43745	43745	43745	43737	43717	43717	43709	999999	43735	43735	43727	999999	43751	43751	43751	43743	43729	43729	43721	999999	43707	43699	999999	999999	43736	43736	43728	999999	43717
43709	43709	43701	999999	43710	43710	43702	999999	43737	43737	999999	999999	999999	0	999999	999999	43729	43729	43729	43721	43736	43736	43736	43728	43700	43700	43692	999999	43747	43747	999999	999999	43752	43752	999999	999999	43762	43762	999999	999999	43704	43704	43696	999999	43724	43724	43724	43716	43759	43759	999999	999999	43751	43751	999999	999999	43757	43757	999999	999999	43734	43734	43734	43726	43746	43746	999999	999999	43733
43709	43709	43709	43701	43710	43710	43710	43702	43737	43737	43737	999999	999999	999999	0	999999	43729	43729	43729	999999	43736	43736	43736	999999	43700	43700	43700	43692	43747	43747	43747	999999	43752	43752	43752	999999	43762	43762	43762	999999	43704	43704	43704	43696	43724	43724	43724	999999	43759	43759	43759	999999	43751	43751	43751	999999	43757	43757	43757	999999	43734	43734	43734	999999	43746	43746	43746	999999	43733
43709	43709	43709	43709	43710	43710	43710	43710	43737	43737	43737	43737	999999	999999	999999	0	43729	43729	43729	43729	43736	43736	43736	43736	43700	43700	43700	43700	43747	43747	43747	43747	43752	43752	43752	43752	43762	43762	43762	43762	43704	43704	43704	43704	43724	43724	43724	43724	43759	43759	43759	43759	43751	43751	43751	43751	43757	43757	43757	43757	43734	43734	43734	43734	43746	43746	43746	43746	43733
43709	43701	999999	999999	43710	43702	999999	999999	43737	43737	43737	43729	0	999999	999999	999999	43729	43729	43721	999999	43736	43736	43728	999999	43700	43692	999999	999999	43747	43747	43747	43739	43752	43752	43752	43744	43762	999999	999999	999999	43704	43696	999999	999999	43724	43724	43716	999999	43759	999999	999999	999999	43751	43751	43751	43743	43757	43757	43757	43749	43734	43734	43726	999999	43746	43746	43746	43738	43733
43726	43726	43726	43718	43730	43730	43730	43722	43737	43737	999999	999999	43729	43729	43729	43721	999999	0	999999	999999	43706	43706	43698	999999	43725	43725	43725	43717	43717	43717	43717	43709	43734	43734	43734	43726	43738	43738	999999	999999	43727	43727	43727	43719	43715	43715	43707	999999	43734	43734	43734	43726	43717	43717	43717	43709	43734	43734	43734	43726	43725	43725	43725	43717	43715	43715	43707	999999	43717
43726	43726	43726	999999	43730	43730	43730	999999	43737	43737	43737	999999	43729	43729	43729	999999	999999	999999	0	999999	43706	43706	43706	43698	43725	43725	43725	999999	43717	43717	43717	999999	43734	43734	43734	999999	43738	43738	43738	999999	43727	43727	43727	999999	43715	43715	43715	43707	43734	43734	43734	999999	43717	43717	43717	999999	43734	43734	43734	999999	43725	43725	43725	999999	43715	43715	43715	43707	43717
43726	43726	43726	43726	43730	43730	43730	43730	43737	43737	43737	43737	43729	43729	43729	43729	999999	999999	999999	0	43706	43706	43706	43706	43725	43725	43725	43725	43717	43717	43717	43717	43734	43734	43734	43734	43738	43738	43738	43738	43727	43727	43727	43727	43715	43715	43715	43715	43734	43734	43734	43734	43717	43717	43717	43717	43734	43734	43734	43734	43725	43725	43725	43725	43715	43715	43715	43715	43717
43726	43726	43718	999999	43730	43730	43722	999999	43737	43737	43737	43729	43729	43729	43721	999999	0	999999	999999	999999	43706	43698	999999	999999	43725	43725	43717	999999	43717	43717	43709	999999	43734	43734	43726	999999	43738	43738	43738	43730	43727	43727	43719	999999	43715	43707	999999	999999	43734	43734	43726	999999	43717	43717	43709	999999	43734	43734	43726	999999	43725	43725	43717	999999	43715	43707	999999	999999	43717
43736	43736	43736	43728	43733	43733	43733	43725	43733	43733	43733	43725	43736	43736	43736	43728	43706	43706	43698	999999	999999	0	999999	999999	43732	43732	43732	43724	43722	43722	43722	43714	43724	43724	43724	43716	43727	43727	43727	43719	43737	43737	43737	43729	43713	43713	43705	999999	43722	43722	43722	43714	43713	43713	43705	999999	43723	43723	43723	43715	43720	43720	43720	43712	43704	43704	43696	999999	43710
43736	43736	43736	999999	43733	43733	43733	999999	43733	43733	43733	999999	43736	43736	43736	999999	43706	43706	43706	43698	999999	999999	0	999999	43732	43732	43732	999999	43722	43722	43722	999999	43724	43724	43724	999999	43727	43727	43727	999999	43737	43737	43737	999999	43713	43713	43713	43705	43722	43722	43722	999999	43713	43713	43713	43705	43723	43723	43723	999999	43720	43720	43720	999999	43704	43704	43704	43696	43710
43736	43736	43736	43736	43733	43733	43733	43733	43733	43733	43733	43733	43736	43736	43736	43736	43706	43706	43706	43706	999999	999999	999999	0	43732	43732	43732	43732	43722	43722	43722	43722	43724	43724	43724	43724	43727	43727	43727	43727	43737	43737	43737	43737	43713	43713	43713	43713	43722	43722	43722	43722	43713	43713	43713	43713	43723	43723	43723	43723	43720	43720	43720	43720	43704	43704	43704	43704	43710
43736	43736	43728	999999	43733	43733	43725	999999	43733	43733	43725	999999	43736	43736	43728	999999	43706	43698	999999	999999	0	999999	999999	999999	43732	43732	43724	999999	43722	43722	43714	999999	43724	43724	43716	999999	43727	43727	43719	999999	43737	43737	43729	999999	43713	43705	999999	999999	43722	43722	43714	999999	43713	43705	999999	999999	43723	43723	43715	999999	43720	43720	43712	999999	43704	43696	999999	999999	43710
43713	43713	43705	999999	43706	43706	43698	999999	43732	43732	43732	43724	43700	43700	43692	999999	43725	43725	43725	43717	43732	43732	43732	43724	999999	0	999999	999999	43745	43745	999999	999999	43747	43747	999999	999999	43756	43756	999999	999999	43708	43708	43700	999999	43719	43719	43719	43711	43754	43754	999999	999999	43747	43747	999999	999999	43752	43752	999999	999999	43728	43728	43728	43720	43741	43741	999999	999999	43728
43713	43713	43713	43705	43706	43706	43706	43698	43732	43732	43732	999999	43700	43700	43700	43692	43725	43725	43725	999999	43732	43732	43732	999999	999999	999999	0	999999	43745	43745	43745	999999	43747	43747	43747	999999	43756	43756	43756	999999	43708	43708	43708	43700	43719	43719	43719	999999	43754	43754	43754	999999	43747	43747	43747	999999	43752	43752	43752	999999	43728	43728	43728	999999	43741	43741	43741	999999	43728
43713	43713	43713	43713	43706	43706	43706	43706	43732	43732	43732	43732	43700	43700	43700	43700	43725	43725	43725	43725	43732	43732	43732	43732	999999	999999	999999	0	43745	43745	43745	43745	43747	43747	43747	43747	43756	43756	43756	43756	43708	43708	43708	43708	43719	43719	43719	43719	43754	43754	43754	43754	43747	43747	43747	43747	43752	43752	43752	43752	43728	43728	43728	43728	43741	43741	43741	43741	43728
43713	43705	999999	999999	43706	43698	999999	999999	43732	43732	43724	999999	43700	43692	999999	999999	43725	43725	43717	999999	43732	43732	43724	999999	0	999999	999999	999999	43745	43745	43745	43737	43747	43747	43747	43739	43756	43756	43756	43748	43708	43700	999999	999999	43719	43719	43711	999999	43754	43754	43754	43746	43747	43747	43747	43739	43752	43752	43752	43744	43728	43728	43720	999999	43741	43741	43741	43733	43728
43739	43739	999999	999999	43752	43752	999999	999999	43759	43759	999999	999999	43747	43747	999999	999999	43717	43717	43717	43709	43722	43722	43722	43714	43745	43745	999999	999999	999999	0	999999	999999	43750	43750	999999	999999	43749	43749	999999	999999	43743	43743	999999	999999	43737	43737	999999	999999	43743	43743	999999	999999	43711	43711	43703	999999	43747	43747	999999	999999	43747	43747	999999	999999	43724	43724	43724	43716	43737
43739	43739	43739	999999	43752	43752	43752	999999	43759	43759	43759	999999	43747	43747	43747	999999	43717	43717	43717	999999	43722	43722	43722	999999	43745	43745	43745	999999	999999	999999	0	999999	43750	43750	43750	999999	43749	43749	43749	999999	43743	43743	43743	999999	43737	43737	43737	999999	43743	43743	43743	999999	43711	43711	43711	43703	43747	43747	43747	999999	43747	43747	43747	999999	43724	43724	43724	999999	43737
43739	43739	43739	43739	43752	43752	43752	43752	43759	43759	43759	43759	43747	43747	43747	43747	43717	43717	43717	43717	43722	43722	43722	43722	43745	43745	43745	43745	999999	999999	999999	0	43750	43750	43750	43750	43749	43749	43749	43749	43743	43743	43743	43743	43737	43737	43737	43737	43743	43743	43743	43743	43711	43711	43711	43711	43747	43747	43747	43747	43747	43747	43747	43747	43724	43724	43724	43724	43737
43739	43739	43739	43731	43752	43752	43752	43744	43759	999999	999999	999999	43747	43747	43747	43739	43717	43717	43709	999999	43722	43722	43714	999999	43745	43745	43745	43737	0	999999	999999	999999	43750	43750	43750	43742	43749	43749	43749	43741	43743	43743	43743	43735	43737	43737	43737	43729	43743	43743	43743	43735	43711	43703	999999	999999	43747	43747	43747	43739	43747	43747	43747	43739	43724	43724	43716	999999	43737
43759	43759	999999	999999	43742	43742	999999	999999	43721	43721	43721	43713	43752	43752	999999	999999	43734	43734	43734	43726	43724	43724	43724	43716	43747	43747	999999	999999	43750	43750	999999	999999	999999	0	999999	999999	43707	43707	43699	999999	43757	43757	999999	999999	43723	43723	43723	43715	43709	43709	43701	999999	43736	43736	43736	43728	43703	43703	43695	999999	43714	43714	43706	999999	43721	43721	43721	43713	43715
43759	43759	43759	999999	43742	43742	43742	999999	43721	43721	43721	999999	43752	43752	43752	999999	43734	43734	43734	999999	43724	43724	43724	999999	43747	43747	43747	999999	43750	43750	43750	999999	999999	999999	0	999999	43707	43707	43707	43699	43757	43757	43757	999999	43723	43723	43723	999999	43709	43709	43709	43701	43736	43736	43736	999999	43703	43703	43703	43695	43714	43714	43714	43706	43721	43721	43721	999999	43715
43759	43759	43759	43759	43742	43742	43742	43742	43721	43721	43721	43721	43752	43752	43752	43752	43734	43734	43734	43734	43724	43724	43724	43724	43747	43747	43747	43747	43750	43750	43750	43750	999999	999999	999999	0	43707	43707	43707	43707	43757	43757	43757	43757	43723	43723	43723	43723	43709	43709	43709	43709	43736	43736	43736	43736	43703	43703	43703	43703	43714	43714	43714	43714	43721	43721	43721	43721	43715
43759	999999	999999	999999	43742	43742	43742	43734	43721	43721	43713	999999	43752	43752	43752	43744	43734	43734	43726	999999	43724	43724	43716	999999	43747	43747	43747	43739	43750	43750	43750	43742	0	999999	999999	999999	43707	43699	999999	999999	43757	43757	43757	43749	43723	43723	43715	999999	43709	43701	999999	999999	43736	43736	43728	999999	43703	43695	999999	999999	43714	43706	999999	999999	43721	43721	43713	999999	43715
43766	43766	999999	999999	43752	43752	999999	999999	43733	43733	43733	43725	43762	43762	999999	999999	43738	43738	999999	999999	43727	43727	43727	43719	43756	43756	999999	999999	43749	43749	999999	999999	43707	43707	43699	999999	999999	0	999999	999999	43765	43765	999999	999999	43732	43732	43732	43724	43701	43701	43693	999999	43734	43734	43734	43726	43699	43699	43691	999999	43725	43725	43725	43717	43721	43721	43721	43713	43723
43766	43766	43766	999999	43752	43752	43752	999999	43733	43733	43733	999999	43762	43762	43762	999999	43738	43738	43738	999999	43727	43727	43727	999999	43756	43756	43756	999999	43749	43749	43749	999999	43707	43707	43707	43699	999999	999999	0	999999	43765	43765	43765	999999	43732	43732	43732	999999	43701	43701	43701	43693	43734	43734	43734	999999	43699	43699	43699	43691	43725	43725	43725	999999	43721	43721	43721	999999	43723
43766	43766	43766	43766	43752	43752	43752	43752	43733	43733	43733	43733	43762	43762	43762	43762	43738	43738	43738	43738	43727	43727	43727	43727	43756	43756	43756	43756	43749	43749	43749	43749	43707	43707	43707	43707	999999	999999	999999	0	43765	43765	43765	43765	43732	43732	43732	43732	43701	43701	43701	43701	43734	43734	43734	43734	43699	43699	43699	43699	43725	43725	43725	43725	43721	43721	43721	43721	43723
43766	999999	999999	999999	43752	43752	43752	43744	43733	43733	43725	999999	43762	999999	999999	999999	43738	43738	43738	43730	43727	43727	43719	999999	43756	43756	43756	43748	43749	43749	43749	43741	43707	43699	999999	999999	0	999999	999999	999999	43765	999999	999999	999999	43732	43732	43724	999999	43701	43693	999999	999999	43734	43734	43726	999999	43699	43691	999999	999999	43725	43725	43717	999999	43721	43721	43713	999999	43723
43700	43700	43692	999999	43719	43719	43719	43711	43745	43745	999999	999999	43704	43704	43696	999999	43727	43727	43727	43719	43737	43737	43737	43729	43708	43708	43700	999999	43743	43743	999999	999999	43757	43757	999999	999999	43765	43765	999999	999999	999999	0	999999	999999	43729	43729	43729	43721	43762	43762	999999	999999	43749	43749	999999	999999	43761	43761	999999	999999	43739	43739	999999	999999	43746	43746	999999	999999	43737
43700	43700	43700	43692	43719	43719	43719	999999	43745	43745	43745	999999	43704	43704	43704	43696	43727	43727	43727	999999	43737	43737	43737	999999	43708	43708	43708	43700	43743	43743	43743	999999	43757	43757	43757	999999	43765	43765	43765	999999	999999	999999	0	999999	43729	43729	43729	999999	43762	43762	43762	999999	43749	43749	43749	999999	43761	43761	43761	999999	43739	43739	43739	999999	43746	43746	43746	999999	43737
43700	43700	43700	43700	43719	43719	43719	43719	43745	43745	43745	43745	43704	43704	43704	43704	43727	43727	43727	43727	43737	43737	43737	43737	43708	43708	43708	43708	43743	43743	43743	43743	43757	43757	43757	43757	43765	43765	43765	43765	999999	999999	999999	0	43729	43729	43729	43729	43762	43762	43762	43762	43749	43749	43749	43749	43761	43761	43761	43761	43739	43739	43739	43739	43746	43746	43746	43746	43737
43700	43692	999999	999999	43719	43719	43711	999999	43745	43745	43745	43737	43704	43696	999999	999999	43727	43727	43719	999999	43737	43737	43729	999999	43708	43700	999999	999999	43743	43743	43743	43735	43757	43757	43757	43749	43765	999999	999999	999999	0	999999	999999	999999	43729	43729	43721	999999	43762	999999	999999	999999	43749	43749	43749	43741	43761	999999	999999	999999	43739	43739	43739	43731	43746	43746	43746	43738	43737
43731	43731	43731	43723	43717	43717	43717	43709	43717	43717	43717	43709	43724	43724	43724	43716	43715	43715	43707	999999	43713	43713	43705	999999	43719	43719	43719	43711	43737	43737	999999	999999	43723	43723	43723	43715	43732	43732	43732	43724	43729	43729	43729	43721	999999	0	999999	999999	43730	43730	43730	43722	43732	43732	43732	43724	43727	43727	43727	43719	43707	43707	43699	999999	43720	43720	43720	43712	43704
43731	43731	43731	999999	43717	43717	43717	999999	43717	43717	43717	999999	43724	43724	43724	999999	43715	43715	43715	43707	43713	43713	43713	43705	43719	43719	43719	999999	43737	43737	43737	999999	43723	43723	43723	999999	43732	43732	43732	999999	43729	43729	43729	999999	999999	999999	0	999999	43730	43730	43730	999999	43732	43732	43732	999999	43727	43727	43727	999999	43707	43707	43707	43699	43720	43720	43720	999999	43704
43731	43731	43731	43731	43717	43717	43717	43717	43717	43717	43717	43717	43724	43724	43724	43724	43715	43715	43715	43715	43713	43713	43713	43713	43719	43719	43719	43719	43737	43737	43737	43737	43723	43723	43723	43723	43732	43732	43732	43732	43729	43729	43729	43729	999999	999999	999999	0	43730	43730	43730	43730	43732	43732	43732	43732	43727	43727	43727	43727	43707	43707	43707	43707	43720	43720	43720	43720	43704
43731	43731	43723	999999	43717	43717	43709	999999	43717	43717	43709	999999	43724	43724	43716	999999	43715	43707	999999	999999	43713	43705	999999	999999	43719	43719	43711	999999	43737	43737	43737	43729	43723	43723	43715	999999	43732	43732	43724	999999	43729	43729	43721	999999	0	999999	999999	999999	43730	43730	43722	999999	43732	43732	43724	999999	43727	43727	43719	999999	43707	43699	999999	999999	43720	43720	43712	999999	43704
43763	43763	999999	999999	43751	43751	999999	999999	43735	43735	43735	43727	43759	43759	999999	999999	43734	43734	43734	43726	43722	43722	43722	43714	43754	43754	999999	999999	43743	43743	999999	999999	43709	43709	43701	999999	43701	43701	43693	999999	43762	43762	999999	999999	43730	43730	43730	43722	999999	0	999999	999999	43728	43728	43728	43720	43701	43701	43693	999999	43726	43726	43726	43718	43715	43715	43707	999999	43721
43763	43763	43763	999999	43751	43751	43751	999999	43735	43735	43735	999999	43759	43759	43759	999999	43734	43734	43734	999999	43722	43722	43722	999999	43754	43754	43754	999999	43743	43743	43743	999999	43709	43709	43709	43701	43701	43701	43701	43693	43762	43762	43762	999999	43730	43730	43730	999999	999999	999999	0	999999	43728	43728	43728	999999	43701	43701	43701	43693	43726	43726	43726	999999	43715	43715	43715	43707	43721
43763	43763	43763	43763	43751	43751	43751	43751	43735	43735	43735	43735	43759	43759	43759	43759	43734	43734	43734	43734	43722	43722	43722	43722	43754	43754	43754	43754	43743	43743	43743	43743	43709	43709	43709	43709	43701	43701	43701	43701	43762	43762	43762	43762	43730	43730	43730	43730	999999	999999	999999	0	43728	43728	43728	43728	43701	43701	43701	43701	43726	43726	43726	43726	43715	43715	43715	43715	43721
43763	999999	999999	999999	43751	43751	43751	43743	43735	43735	43727	999999	43759	999999	999999	999999	43734	43734	43726	999999	43722	43722	43714	999999	43754	43754	43754	43746	43743	43743	43743	43735	43709	43701	999999	999999	43701	43693	999999	999999	43762	999999	999999	999999	43730	43730	43722	999999	0	999999	999999	999999	43728	43728	43720	999999	43701	43693	999999	999999	43726	43726	43718	999999	43715	43707	999999	999999	43721
43747	43747	999999	999999	43751	43751	999999	999999	43751	43751	999999	999999	43751	43751	999999	999999	43717	43717	43717	43709	43713	43713	43705	999999	43747	43747	999999	999999	43711	43711	43703	999999	43736	43736	43736	43728	43734	43734	43734	43726	43749	43749	999999	999999	43732	43732	43732	43724	43728	43728	43728	43720	999999	0	999999	999999	43732	43732	43732	43724	43738	43738	999999	999999	43710	43710	43702	999999	43728
43747	43747	43747	999999	43751	43751	43751	999999	43751	43751	43751	999999	43751	43751	43751	999999	43717	43717	43717	999999	43713	43713	43713	43705	43747	43747	43747	999999	43711	43711	43711	43703	43736	43736	43736	999999	43734	43734	43734	999999	43749	43749	43749	999999	43732	43732	43732	999999	43728	43728	43728	999999	999999	999999	0	999999	43732	43732	43732	999999	43738	43738	43738	999999	43710	43710	43710	43702	43728
43747	43747	43747	43747	43751	43751	43751	43751	43751	43751	43751	43751	43751	43751	43751	43751	43717	43717	43717	43717	43713	43713	43713	43713	43747	43747	43747	43747	43711	43711	43711	43711	43736	43736	43736	43736	43734	43734	43734	43734	43749	43749	43749	43749	43732	43732	43732	43732	43728	43728	43728	43728	999999	999999	999999	0	43732	43732	43732	43732	43738	43738	43738	43738	43710	43710	43710	43710	43728
43747	43747	43747	43739	43751	43751	43751	43743	43751	43751	43751	43743	43751	43751	43751	43743	43717	43717	43709	999999	43713	43705	999999	999999	43747	43747	43747	43739	43711	43703	999999	999999	43736	43736	43728	999999	43734	43734	43726	999999	43749	43749	43749	43741	43732	43732	43724	999999	43728	43728	43720	999999	0	999999	999999	999999	43732	43732	43724	999999	43738	43738	43738	43730	43710	43702	999999	999999	43728
43762	43762	999999	999999	43748	43748	999999	999999	43729	43729	43729	43721	43757	43757	999999	999999	43734	43734	43734	43726	43723	43723	43723	43715	43752	43752	999999	999999	43747	43747	999999	999999	43703	43703	43695	999999	43699	43699	43691	999999	43761	43761	999999	999999	43727	43727	43727	43719	43701	43701	43693	999999	43732	43732	43732	43724	999999	0	999999	999999	43721	43721	43721	43713	43718	43718	43718	43710	43718
43762	43762	43762	999999	43748	43748	43748	999999	43729	43729	43729	999999	43757	43757	43757	999999	43734	43734	43734	999999	43723	43723	43723	999999	43752	43752	43752	999999	43747	43747	43747	999999	43703	43703	43703	43695	43699	43699	43699	43691	43761	43761	43761	999999	43727	43727	43727	999999	43701	43701	43701	43693	43732	43732	43732	999999	999999	999999	0	999999	43721	43721	43721	999999	43718	43718	43718	999999	43718
43762	43762	43762	43762	43748	43748	43748	43748	43729	43729	43729	43729	43757	43757	43757	43757	43734	43734	43734	43734	43723	43723	43723	43723	43752	43752	43752	43752	43747	43747	43747	43747	43703	43703	43703	43703	43699	43699	43699	43699	43761	43761	43761	43761	43727	43727	43727	43727	43701	43701	43701	43701	43732	43732	43732	43732	999999	999999	999999	0	43721	43721	43721	43721	43718	43718	43718	43718	43718
43762	999999	999999	999999	43748	43748	43748	43740	43729	43729	43721	999999	43757	43757	43757	43749	43734	43734	43726	999999	43723	43723	43715	999999	43752	43752	43752	43744	43747	43747	43747	43739	43703	43695	999999	999999	43699	43691	999999	999999	43761	999999	999999	999999	43727	43727	43719	999999	43701	43693	999999	999999	43732	43732	43724	999999	0	999999	999999	999999	43721	43721	43713	999999	43718	43718	43710	999999	43718
43742	43742	999999	999999	43722	43722	43722	43714	43707	43707	43699	999999	43734	43734	43734	43726	43725	43725	43725	43717	43720	43720	43720	43712	43728	43728	43728	43720	43747	43747	999999	999999	43714	43714	43706	999999	43725	43725	43725	43717	43739	43739	999999	999999	43707	43707	43699	999999	43726	43726	43726	43718	43738	43738	999999	999999	43721	43721	43721	43713	999999	0	999999	999999	43724	43724	43724	43716	43705
43742	43742	43742	999999	43722	43722	43722	999999	43707	43707	43707	43699	43734	43734	43734	999999	43725	43725	43725	999999	43720	43720	43720	999999	43728	43728	43728	999999	43747	43747	43747	999999	43714	43714	43714	43706	43725	43725	43725	999999	43739	43739	43739	999999	43707	43707	43707	43699	43726	43726	43726	999999	43738	43738	43738	999999	43721	43721	43721	999999	999999	999999	0	999999	43724	43724	43724	999999	43705
43742	43742	43742	43742	43722	43722	43722	43722	43707	43707	43707	43707	43734	43734	43734	43734	43725	43725	43725	43725	43720	43720	43720	43720	43728	43728	43728	43728	43747	43747	43747	43747	43714	43714	43714	43714	43725	43725	43725	43725	43739	43739	43739	43739	43707	43707	43707	43707	43726	43726	43726	43726	43738	43738	43738	43738	43721	43721	43721	43721	999999	999999	999999	0	43724	43724	43724	43724	43705
43742	43742	43742	43734	43722	43722	43714	999999	43707	43699	999999	999999	43734	43734	43726	999999	43725	43725	43717	999999	43720	43720	43712	999999	43728	43728	43720	999999	43747	43747	43747	43739	43714	43706	999999	999999	43725	43725	43717	999999	43739	43739	43739	43731	43707	43699	999999	999999	43726	43726	43718	999999	43738	43738	43738	43730	43721	43721	43713	999999	0	999999	999999	999999	43724	43724	43716	999999	43705
43746	43746	999999	999999	43742	43742	999999	999999	43736	43736	43736	43728	43746	43746	999999	999999	43715	43715	43707	999999	43704	43704	43696	999999	43741	43741	999999	999999	43724	43724	43724	43716	43721	43721	43721	43713	43721	43721	43721	43713	43746	43746	999999	999999	43720	43720	43720	43712	43715	43715	43707	999999	43710	43710	43702	999999	43718	43718	43718	43710	43724	43724	43724	43716	999999	0	999999	999999	43714
43746	43746	43746	999999	43742	43742	43742	999999	43736	43736	43736	999999	43746	43746	43746	999999	43715	43715	43715	43707	43704	43704	43704	43696	43741	43741	43741	999999	43724	43724	43724	999999	43721	43721	43721	999999	43721	43721	43721	999999	43746	43746	43746	999999	43720	43720	43720	999999	43715	43715	43715	43707	43710	43710	43710	43702	43718	43718	43718	999999	43724	43724	43724	999999	999999	999999	0	999999	43714
43746	43746	43746	43746	43742	43742	43742	43742	43736	43736	43736	43736	43746	43746	43746	43746	43715	43715	43715	43715	43704	43704	43704	43704	43741	43741	43741	43741	43724	43724	43724	43724	43721	43721	43721	43721	43721	43721	43721	43721	43746	43746	43746	43746	43720	43720	43720	43720	43715	43715	43715	43715	43710	43710	43710	43710	43718	43718	43718	43718	43724	43724	43724	43724	999999	999999	999999	0	43714
43746	43746	43746	43738	43742	43742	43742	43734	43736	43736	43728	999999	43746	43746	43746	43738	43715	43707	999999	999999	43704	43696	999999	999999	43741	43741	43741	43733	43724	43724	43716	999999	43721	43721	43713	999999	43721	43721	43713	999999	43746	43746	43746	43738	43720	43720	43712	999999	43715	43707	999999	999999	43710	43702	999999	999999	43718	43718	43710	999999	43724	43724	43716	999999	0	999999	999999	999999	43714
43739	43739	999999	999999	43725	43725	43725	43717	43717	43717	43717	43709	43733	43733	43733	43725	43717	43717	43717	43709	43710	43710	43702	999999	43728	43728	43728	43720	43737	43737	43737	43729	43715	43715	43707	999999	43723	43723	43723	43715	43737	43737	999999	999999	43704	43704	43696	999999	43721	43721	43721	43713	43728	43728	43728	43720	43718	43718	43718	43710	43705	43705	43697	999999	43714	43714	43706	999999	999999
GTSP_SET_SECTION:
1 1 2 3 4 -1
2 5 6 7 8 -1
3 9 10 11 12 -1
4 13 14 15 16 -1
5 17 18 19 20 -1
6 21 22 23 24 -1
7 25 26 27 28 -1
8 29 30 31 32 -1
9 33 34 35 36 -1
10 37 38 39 40 -1
11 41 42 43 44 -1
12 45 46 47 48 -1
13 49 50 51 52 -1
14 53 54 55 56 -1
15 57 58 59 60 -1
16 61 62 63 64 -1
17 65 66 67 68 -1
18 69 70 71 72-1
19 73 -1
EOF